
(set-logic ALL) 

(declare-datatype MyList ((Nil) (Cons (head Real) (tail MyList)) )) 
(declare-fun l0 () MyList) 
(declare-fun l1 () MyList) 
(declare-fun l2 () MyList) 
(declare-fun l3 () MyList) 
(declare-fun i0 () Real) 
(declare-fun i1 () Real) 
(assert (is-Nil Nil) )
(assert (and (is-Cons l1) (= l2 l2) (= l2 Nil) (= l3 Nil)) )
(assert (is-Nil l2) )
(assert (is-Cons Nil) )
(assert (is-Nil Nil) )
(assert (not (= l0 Nil)) )
(assert (= l3 l1) )
(assert (and (= l3 Nil) (= l1 l0) (= l2 Nil) (is-Nil Nil)) )
(check-sat)
